100
128
41
11
44
40
44
1
32
25
5
2
8
9
56
25
8
48
39
63
6
6
24
37
52
19
41
28
10
36
25
12
20
10
27
41
46
17
64
40
15
1
51
28
18
26
56
64
63
13
47
41
53
59
27
44
28
29
13
18
17
50
47
14
24
23
12
34
12
47
27
5
42
58
57
25
14
38
25
31
18
22
15
14
22
13
40
15
32
12
25
29
29
56
33
6
39
37
26
24
3
41